
Gurobi 7.5.1 (linux64, Python) logging started Tue Dec 12 11:15:57 2017

Academic license - for non-commercial use only
Optimize a model with 16 rows, 12 columns and 36 nonzeros
Coefficient statistics:
  Matrix range     [1e+00, 1e+00]
  Objective range  [1e+01, 8e+01]
  Bounds range     [0e+00, 0e+00]
  RHS range        [1e+01, 1e+02]
Presolve removed 16 rows and 12 columns
Presolve time: 0.04s
Presolve: All rows and columns removed
Iteration    Objective       Primal Inf.    Dual Inf.      Time
       0    5.5000000e+03   0.000000e+00   0.000000e+00      0s

Solved in 0 iterations and 0.05 seconds
Optimal objective  5.500000000e+03
Optimize a model with 16 rows, 12 columns and 36 nonzeros
Coefficient statistics:
  Matrix range     [1e+00, 1e+00]
  Objective range  [1e+01, 8e+01]
  Bounds range     [0e+00, 0e+00]
  RHS range        [1e+01, 1e+02]
Presolve removed 16 rows and 12 columns
Presolve time: 0.01s
Presolve: All rows and columns removed
Iteration    Objective       Primal Inf.    Dual Inf.      Time
       0    5.5000000e+03   0.000000e+00   0.000000e+00      0s

Solved in 0 iterations and 0.01 seconds
Optimal objective  5.500000000e+03

Gurobi 7.5.1 (linux64, Python) logging started Tue Dec 12 11:28:45 2017

Academic license - for non-commercial use only
Optimize a model with 600 rows, 90000 columns and 180000 nonzeros
Variable types: 0 continuous, 90000 integer (90000 binary)
Coefficient statistics:
  Matrix range     [1e+00, 1e+00]
  Objective range  [7e-06, 1e+00]
  Bounds range     [1e+00, 1e+00]
  RHS range        [1e+00, 1e+00]
Found heuristic solution: objective 144.451
Presolve time: 0.27s
Presolved: 600 rows, 90000 columns, 180000 nonzeros
Variable types: 0 continuous, 90000 integer (90000 binary)

Root relaxation: objective 2.983468e+02, 719 iterations, 0.06 seconds

    Nodes    |    Current Node    |     Objective Bounds      |     Work
 Expl Unexpl |  Obj  Depth IntInf | Incumbent    BestBd   Gap | It/Node Time

*    0     0               0     298.3468019  298.34680  0.00%     -    0s

Explored 0 nodes (719 simplex iterations) in 0.55 seconds
Thread count was 8 (of 8 available processors)

Solution count 2: 298.347 144.451 

Optimal solution found (tolerance 1.00e-04)
Best objective 2.983468019306e+02, best bound 2.983468019306e+02, gap 0.0000%
